Speck32/MILP/sol/6Round_1011.sol
# Objective value = 16.000000000000004
pro0Rd0 7.494005416219807e-16
pro1Rd0 4.544975507059235e-16
pro2Rd0 -0.0
pro3Rd0 1.0
pro4Rd0 -7.494005416219807e-16
pro5Rd0 -0.0
pro6Rd0 -0.0
pro7Rd0 -0.0
pro8Rd0 -0.0
pro9Rd0 1.0
pro10Rd0 0.9999999999999986
pro11Rd0 0.0
pro12Rd0 1.0
pro13Rd0 0.0
pro14Rd0 -0.0
pro0Rd1 1.4988010832439613e-15
pro1Rd1 1.0
pro2Rd1 0.0
pro3Rd1 0.0
pro4Rd1 0.0
pro5Rd1 5.551115123125783e-16
pro6Rd1 2.3314683517128287e-15
pro7Rd1 3.0531133177191805e-16
pro8Rd1 -0.0
pro9Rd1 1.4988010832439613e-15
pro10Rd1 0.0
pro11Rd1 1.0547118733938987e-15
pro12Rd1 1.0547118733938987e-15
pro13Rd1 -8.326672684688674e-17
pro14Rd1 4.440892098500626e-16
pro0Rd2 -0.0
pro1Rd2 0.0
pro2Rd2 -0.0
pro3Rd2 1.2490009027033011e-15
pro4Rd2 2.3314683517128287e-15
pro5Rd2 1.1657341758564144e-15
pro6Rd2 -0.0
pro7Rd2 0.0
pro8Rd2 -0.0
pro9Rd2 0.0
pro10Rd2 0.0
pro11Rd2 -0.0
pro12Rd2 3.4416913763379853e-15
pro13Rd2 0.0
pro14Rd2 1.4988010832439613e-15
pro0Rd3 4.6629367034256575e-15
pro1Rd3 4.6629367034256575e-15
pro2Rd3 4.6629367034256575e-15
pro3Rd3 4.3298697960381105e-15
pro4Rd3 -0.0
pro5Rd3 -0.0
pro6Rd3 1.0
pro7Rd3 -0.0
pro8Rd3 -0.0
pro9Rd3 -0.0
pro10Rd3 3.4416913763379853e-15
pro11Rd3 -0.0
pro12Rd3 -0.0
pro13Rd3 1.0
pro14Rd3 -0.0
pro0Rd4 7.327471962526033e-15
pro1Rd4 1.5987211554602254e-14
pro2Rd4 7.327471962526033e-15
pro3Rd4 7.327471962526033e-15
pro4Rd4 1.0
pro5Rd4 0.0
pro6Rd4 1.0000000000000004
pro7Rd4 4.6629367034256575e-15
pro8Rd4 -1.4988010832439613e-15
pro9Rd4 7.327471962526033e-15
pro10Rd4 -6.8833827526759706e-15
pro11Rd4 1.0
pro12Rd4 0.0
pro13Rd4 1.0
pro14Rd4 0.0
pro0Rd5 -0.0
pro1Rd5 -2.886579864025407e-14
pro2Rd5 1.0
pro3Rd5 -0.0
pro4Rd5 1.0
pro5Rd5 0.0
pro6Rd5 0.9999999999999449
pro7Rd5 1.4654943925052066e-14
pro8Rd5 -0.0
pro9Rd5 0.9999999999999853
pro10Rd5 0.0
pro11Rd5 1.0
pro12Rd5 0.0
pro13Rd5 9.325873406851315e-15
pro14Rd5 -0.0
p0 4.85722573273506e-16
p1 1.2212453270876722e-15
p2 1.2212453270876722e-15
p3 1.0000000000000016
p4 0.9999999999999986
p5 0.0
p6 1.0
p7 0.0
p8 0.0
p9 -0.0
p10 2.7755575615628914e-16
p11 4.544975507059235e-16
p12 1.4988010832439613e-15
p13 1.0
p14 2.248201624865942e-15
p15 0.0
p16 1.0547118733938987e-15
p17 5.551115123125783e-16
p18 9.08995101411847e-16
p19 9.159339953157541e-16
p20 1.0
p21 1.4988010832439613e-15
p22 0.0
p23 4.85722573273506e-16
p24 1.2212453270876722e-15
p25 2.9976021664879227e-15
p26 -0.0
p27 1.4432899320127035e-15
p28 -0.0
p29 1.0
p30 0.0
p31 0.0
p0Rd1 2.3314683517128287e-15
p16Rd1 2.3314683517128287e-15
temp0Rnd0 2.3314683517128287e-15
p1Rd1 1.6653345369377348e-15
p17Rd1 2.9976021664879227e-15
temp1Rnd0 2.9976021664879227e-15
p2Rd1 -0.0
p18Rd1 1.0
temp2Rnd0 1.0
p3Rd1 1.4988010832439613e-15
p19Rd1 0.0
temp3Rnd0 1.4988010832439613e-15
p4Rd1 0.0
p20Rd1 0.0
temp4Rnd0 0.0
p5Rd1 7.494005416219807e-16
p21Rd1 -0.0
temp5Rnd0 4.85722573273506e-16
p6Rd1 0.0
p22Rd1 5.551115123125783e-16
temp6Rnd0 3.552713678800501e-15
p7Rd1 4.85722573273506e-16
p23Rd1 4.6629367034256575e-15
temp7Rnd0 4.6629367034256575e-15
p8Rd1 1.2212453270876722e-15
p24Rd1 8.881784197001252e-16
temp8Rnd0 2.1094237467877974e-15
p9Rd1 1.4432899320127035e-15
p25Rd1 0.0
temp9Rnd0 1.4432899320127035e-15
p10Rd1 1.4988010832439613e-15
p26Rd1 1.4988010832439613e-15
temp10Rnd0 1.4988010832439613e-15
p11Rd1 1.0
p27Rd1 0.0
temp11Rnd0 1.0
p12Rd1 0.0
p28Rd1 0.0
temp12Rnd0 -0.0
p13Rd1 0.0
p29Rd1 -0.0
temp13Rnd0 0.0
p14Rd1 -0.0
p30Rd1 1.0547118733938987e-15
temp14Rnd0 1.0547118733938987e-15
p15Rd1 0.0
p31Rd1 5.551115123125783e-16
temp15Rnd0 5.551115123125783e-16
temp0 0.0
p0Rd2 0.0
p16Rd2 1.0
temp0Rnd1 1.0
p1Rd2 -0.0
p17Rd2 0.0
temp1Rnd1 -0.0
p2Rd2 0.0
p18Rd2 0.0
temp2Rnd1 0.0
p3Rd2 -0.0
p19Rd2 0.0
temp3Rnd1 -0.0
p4Rd2 0.0
p20Rd2 5.551115123125783e-16
temp4Rnd1 5.551115123125783e-16
p5Rd2 -0.0
p21Rd2 4.6629367034256575e-15
temp5Rnd1 4.6629367034256575e-15
p6Rd2 3.6637359812630166e-15
p22Rd2 1.1657341758564144e-15
temp6Rnd1 1.887379141862766e-15
p7Rd2 -0.0
p23Rd2 0.0
temp7Rnd1 -0.0
p8Rd2 1.4988010832439613e-15
p24Rd2 -0.0
temp8Rnd1 1.4988010832439613e-15
p9Rd2 0.0
p25Rd2 -0.0
temp9Rnd1 -0.0
p10Rd2 -0.0
p26Rd2 -0.0
temp10Rnd1 0.0
p11Rd2 -0.0
p27Rd2 -0.0
temp11Rnd1 0.0
p12Rd2 1.0547118733938987e-15
p28Rd2 -0.0
temp12Rnd1 1.0547118733938987e-15
p13Rd2 1.0547118733938987e-15
p29Rd2 3.4416913763379853e-15
temp13Rnd1 3.4416913763379853e-15
p14Rd2 2.3314683517128287e-15
p30Rd2 0.0
temp14Rnd1 2.3314683517128287e-15
p15Rd2 1.1657341758564144e-15
p31Rd2 1.4988010832439613e-15
temp15Rnd1 1.942890293094024e-15
temp1 4.440892098500626e-16
p0Rd3 1.0
p16Rd3 1.0
temp0Rnd2 1.0
p1Rd3 -0.0
p17Rd3 0.0
temp1Rnd2 0.0
p2Rd3 -0.0
p18Rd3 5.551115123125783e-16
temp2Rnd2 5.551115123125783e-16
p3Rd3 -0.0
p19Rd3 4.6629367034256575e-15
temp3Rnd2 4.6629367034256575e-15
p4Rd3 3.4416913763379853e-15
p20Rd3 5.88418203051333e-15
temp4Rnd2 4.3298697960381105e-15
p5Rd3 -0.0
p21Rd3 0.0
temp5Rnd2 0.0
p6Rd3 0.0
p22Rd3 -0.0
temp6Rnd2 0.0
p7Rd3 0.0
p23Rd3 0.0
temp7Rnd2 0.0
p8Rd3 -0.0
p24Rd3 0.0
temp8Rnd2 0.0
p9Rd3 0.0
p25Rd3 0.0
temp9Rnd2 0.0
p10Rd3 -0.0
p26Rd3 0.0
temp10Rnd2 0.0
p11Rd3 -0.0
p27Rd3 3.4416913763379853e-15
temp11Rnd2 3.4416913763379853e-15
p12Rd3 -0.0
p28Rd3 -0.0
temp12Rnd2 -0.0
p13Rd3 1.4988010832439613e-15
p29Rd3 0.0
temp13Rnd2 1.4988010832439613e-15
p14Rd3 0.0
p30Rd3 1.0
temp14Rnd2 1.0
p15Rd3 -0.0
p31Rd3 0.0
temp15Rnd2 -0.0
temp2 1.4988010832439613e-15
p0Rd4 0.9999999999999953
p16Rd4 1.0000000000000038
temp0Rnd3 0.9999999999999953
p1Rd4 4.6629367034256575e-15
p17Rd4 0.0
temp1Rnd3 4.6629367034256575e-15
p2Rd4 5.88418203051333e-15
p18Rd4 -0.0
temp2Rnd3 5.88418203051333e-15
p3Rd4 -0.0
p19Rd4 -0.0
temp3Rnd3 -0.0
p4Rd4 7.327471962526033e-15
p20Rd4 7.327471962526033e-15
temp4Rnd3 7.327471962526033e-15
p5Rd4 -0.0
p21Rd4 0.0
temp5Rnd3 0.0
p6Rd4 0.0
p22Rd4 0.0
temp6Rnd3 0.0
p7Rd4 1.0
p23Rd4 1.0
temp7Rnd3 1.0
p8Rd4 -0.0
p24Rd4 -0.0
temp8Rnd3 -0.0
p9Rd4 -0.0
p25Rd4 3.4416913763379853e-15
temp9Rnd3 3.4416913763379853e-15
p10Rd4 0.0
p26Rd4 0.0
temp10Rnd3 0.0
p11Rd4 6.8833827526759706e-15
p27Rd4 6.8833827526759706e-15
temp11Rnd3 6.8833827526759706e-15
p12Rd4 0.0
p28Rd4 1.0
temp12Rnd3 1.0
p13Rd4 0.0
p29Rd4 -0.0
temp13Rnd3 0.0
p14Rd4 1.0
p30Rd4 -0.0
temp14Rnd3 1.0
p15Rd4 0.0
p31Rd4 0.0
temp15Rnd3 0.0
temp3 0.0
p0Rd5 0.9999999999999911
p16Rd5 0.9999999999999911
temp0Rnd4 0.9999999999999911
p1Rd5 7.327471962526033e-15
p17Rd5 7.327471962526033e-15
temp1Rnd4 7.327471962526033e-15
p2Rd5 1.5987211554602254e-14
p18Rd5 2.1760371282653068e-14
temp2Rnd4 2.1760371282653068e-14
p3Rd5 7.327471962526033e-15
p19Rd5 7.327471962526033e-15
temp3Rnd4 7.327471962526033e-15
p4Rd5 -0.0
p20Rd5 0.0
temp4Rnd4 -0.0
p5Rd5 1.0
p21Rd5 0.0
temp5Rnd4 1.0
p6Rd5 0.0
p22Rd5 0.0
temp6Rnd4 0.0
p7Rd5 9.325873406851315e-15
p23Rd5 4.440892098500626e-16
temp7Rnd4 4.440892098500626e-16
p8Rd5 0.0
p24Rd5 0.0
temp8Rnd4 0.0
p9Rd5 4.6629367034256575e-15
p25Rd5 1.5987211554602254e-14
temp9Rnd4 1.9095836023552692e-14
p10Rd5 7.327471962526033e-15
p26Rd5 0.9999999999999927
temp10Rnd4 1.0
p11Rd5 0.0
p27Rd5 0.0
temp11Rnd4 0.0
p12Rd5 1.0
p28Rd5 1.0
temp12Rnd4 1.0
p13Rd5 0.0
p29Rd5 -0.0
temp13Rnd4 0.0
p14Rd5 1.0
p30Rd5 -3.774758283725532e-15
temp14Rnd4 1.0
p15Rd5 -0.0
p31Rd5 0.0
temp15Rnd4 0.0
temp4 0.0
p0Rd6 0.9999999999999782
p16Rd6 1.0
temp0Rnd5 1.0
p1Rd6 7.327471962526033e-15
p17Rd6 -0.0
temp1Rnd5 7.327471962526033e-15
p2Rd6 2.886579864025407e-14
p18Rd6 2.886579864025407e-14
temp2Rnd5 2.886579864025407e-14
p3Rd6 0.9999999999999927
p19Rd6 1.0000000000000073
temp3Rnd5 1.0
p4Rd6 -0.0
p20Rd6 0.0
temp4Rnd5 0.0
p5Rd6 1.0
p21Rd6 0.9999999999999996
temp5Rnd5 1.0
p6Rd6 0.0
p22Rd6 0.0
temp6Rnd5 0.0
p7Rd6 0.9999999999999662
p23Rd6 0.999999999999929
temp7Rnd5 0.9999999999999662
p8Rd6 7.327471962526033e-15
p24Rd6 1.0
temp8Rnd5 1.0
p9Rd6 1.5987211554602254e-14
p25Rd6 -1.5987211554602254e-14
temp9Rnd5 0.0
p10Rd6 1.0
p26Rd6 -0.0
temp10Rnd5 1.0
p11Rd6 0.0
p27Rd6 0.0
temp11Rnd5 0.0
p12Rd6 0.0
p28Rd6 -3.774758283725532e-15
temp12Rnd5 -3.774758283725532e-15
p13Rd6 0.0
p29Rd6 0.0
temp13Rnd5 0.0
p14Rd6 5.88418203051333e-15
p30Rd6 0.999999999999992
temp14Rnd5 0.9999999999999911
p15Rd6 0.0
p31Rd6 7.327471962526033e-15
temp15Rnd5 7.327471962526033e-15
temp5 0.0
